c CNF file corresponding to a (partial) station packing problem.
p cnf 5100 229
1 2 3 4 5 6 7 8 9 10 11 12 13 14 0
-1 -2 0
-1 -3 0
-1 -4 0
-1 -5 0
-1 -6 0
-1 -7 0
-1 -8 0
-1 -9 0
-1 -10 0
-1 -11 0
-1 -12 0
-1 -13 0
-1 -14 0
-2 -3 0
-2 -4 0
-2 -5 0
-2 -6 0
-2 -7 0
-2 -8 0
-2 -9 0
-2 -10 0
-2 -11 0
-2 -12 0
-2 -13 0
-2 -14 0
-3 -4 0
-3 -5 0
-3 -6 0
-3 -7 0
-3 -8 0
-3 -9 0
-3 -10 0
-3 -11 0
-3 -12 0
-3 -13 0
-3 -14 0
-4 -5 0
-4 -6 0
-4 -7 0
-4 -8 0
-4 -9 0
-4 -10 0
-4 -11 0
-4 -12 0
-4 -13 0
-4 -14 0
-5 -6 0
-5 -7 0
-5 -8 0
-5 -9 0
-5 -10 0
-5 -11 0
-5 -12 0
-5 -13 0
-5 -14 0
-6 -7 0
-6 -8 0
-6 -9 0
-6 -10 0
-6 -11 0
-6 -12 0
-6 -13 0
-6 -14 0
-7 -8 0
-7 -9 0
-7 -10 0
-7 -11 0
-7 -12 0
-7 -13 0
-7 -14 0
-8 -9 0
-8 -10 0
-8 -11 0
-8 -12 0
-8 -13 0
-8 -14 0
-9 -10 0
-9 -11 0
-9 -12 0
-9 -13 0
-9 -14 0
-10 -11 0
-10 -12 0
-10 -13 0
-10 -14 0
-11 -12 0
-11 -13 0
-11 -14 0
-12 -13 0
-12 -14 0
-13 -14 0
5084 5085 5086 5087 5088 5089 5090 5091 5092 5093 5094 5095 5096 5097 5098 5099 5100 0
-5084 -5085 0
-5084 -5086 0
-5084 -5087 0
-5084 -5088 0
-5084 -5089 0
-5084 -5090 0
-5084 -5091 0
-5084 -5092 0
-5084 -5093 0
-5084 -5094 0
-5084 -5095 0
-5084 -5096 0
-5084 -5097 0
-5084 -5098 0
-5084 -5099 0
-5084 -5100 0
-5085 -5086 0
-5085 -5087 0
-5085 -5088 0
-5085 -5089 0
-5085 -5090 0
-5085 -5091 0
-5085 -5092 0
-5085 -5093 0
-5085 -5094 0
-5085 -5095 0
-5085 -5096 0
-5085 -5097 0
-5085 -5098 0
-5085 -5099 0
-5085 -5100 0
-5086 -5087 0
-5086 -5088 0
-5086 -5089 0
-5086 -5090 0
-5086 -5091 0
-5086 -5092 0
-5086 -5093 0
-5086 -5094 0
-5086 -5095 0
-5086 -5096 0
-5086 -5097 0
-5086 -5098 0
-5086 -5099 0
-5086 -5100 0
-5087 -5088 0
-5087 -5089 0
-5087 -5090 0
-5087 -5091 0
-5087 -5092 0
-5087 -5093 0
-5087 -5094 0
-5087 -5095 0
-5087 -5096 0
-5087 -5097 0
-5087 -5098 0
-5087 -5099 0
-5087 -5100 0
-5088 -5089 0
-5088 -5090 0
-5088 -5091 0
-5088 -5092 0
-5088 -5093 0
-5088 -5094 0
-5088 -5095 0
-5088 -5096 0
-5088 -5097 0
-5088 -5098 0
-5088 -5099 0
-5088 -5100 0
-5089 -5090 0
-5089 -5091 0
-5089 -5092 0
-5089 -5093 0
-5089 -5094 0
-5089 -5095 0
-5089 -5096 0
-5089 -5097 0
-5089 -5098 0
-5089 -5099 0
-5089 -5100 0
-5090 -5091 0
-5090 -5092 0
-5090 -5093 0
-5090 -5094 0
-5090 -5095 0
-5090 -5096 0
-5090 -5097 0
-5090 -5098 0
-5090 -5099 0
-5090 -5100 0
-5091 -5092 0
-5091 -5093 0
-5091 -5094 0
-5091 -5095 0
-5091 -5096 0
-5091 -5097 0
-5091 -5098 0
-5091 -5099 0
-5091 -5100 0
-5092 -5093 0
-5092 -5094 0
-5092 -5095 0
-5092 -5096 0
-5092 -5097 0
-5092 -5098 0
-5092 -5099 0
-5092 -5100 0
-5093 -5094 0
-5093 -5095 0
-5093 -5096 0
-5093 -5097 0
-5093 -5098 0
-5093 -5099 0
-5093 -5100 0
-5094 -5095 0
-5094 -5096 0
-5094 -5097 0
-5094 -5098 0
-5094 -5099 0
-5094 -5100 0
-5095 -5096 0
-5095 -5097 0
-5095 -5098 0
-5095 -5099 0
-5095 -5100 0
-5096 -5097 0
-5096 -5098 0
-5096 -5099 0
-5096 -5100 0
-5097 -5098 0
-5097 -5099 0
-5097 -5100 0
-5098 -5099 0
-5098 -5100 0
-5099 -5100 0
